c A temporal KB for measuring ID
p wcnf 25 17 4
3 1 9 0
3 -1 3 0
3 -1 -4 0
3 -9 3 0
3 -9 4 0
3 2 10 0
3 -2 4 0
3 -2 -3 0
3 -10 4 0
3 -10 3 0
3 5 11 0
3 -5 7 0
3 -5 -8 0
3 -11 7 0
3 -11 8 0
1 -3 -4 0
1 -7 -8 0
